<number of tasks>
20


<number of equipment>
5


<cycle time>
1000


<investment costs>
1,9055
2,16208
3,10632
4,25752
5,12238


<task times>
1,-1,-1,224,144,238
2,-1,-1,245,124,227
3,-1,-1,261,129,244
4,-1,-1,248,118,218
5,268,183,181,-1,-1
6,-1,-1,230,81,97
7,-1,-1,234,105,176
8,-1,-1,198,111,224
9,-1,-1,259,120,253
10,217,129,153,-1,-1
11,251,-1,-1,109,-1
12,234,-1,-1,141,-1
13,267,157,124,-1,-1
14,214,200,139,-1,-1
15,171,-1,-1,109,-1
16,-1,-1,251,130,214
17,216,141,186,-1,-1
18,126,179,209,-1,-1
19,-1,-1,244,118,237
20,278,223,255,-1,-1


<precedence relations>
1,11
2,3
2,4
2,5
2,6
2,7
3,11
4,11
6,8
6,10
7,9
7,17
8,11
10,11
10,12
11,13
11,14
11,15
11,16
11,17
12,18
13,20
14,18
14,19
14,20
16,18
16,20
17,19


<task types>
1,3
2,3
3,3
4,3
5,2
6,3
7,3
8,3
9,3
10,2
11,1
12,1
13,2
14,2
15,1
16,3
17,2
18,2
19,3
20,2


<line depot>
1,3
2,0
3,3
4,1
5,0


<processing costs>
1,14400
2,7200
3,14400
4,14400
5,7200


<saving costs>
1,905
2,1620
3,1063
4,2575
5,1223


<end>
